<number of tasks>
50

<cycle time>
1000

<order strength>
0.595


<task times>
1 598
2 453
3 421
4 488
5 525
6 590
7 612
8 400
9 520
10 578
11 486
12 552
13 617
14 512
15 546
16 521
17 486
18 520
19 273
20 424
21 433
22 717
23 473
24 524
25 324
26 516
27 863
28 605
29 661
30 563
31 539
32 656
33 579
34 628
35 647
36 285
37 181
38 589
39 491
40 545
41 200
42 572
43 591
44 339
45 475
46 409
47 435
48 371
49 332
50 298

<precedence relations>
1,6
1,8
1,9
2,7
2,14
2,15
2,16
2,17
2,18
3,8
3,9
4,8
4,9
5,8
5,9
6,12
7,13
8,10
8,14
8,15
8,16
8,17
8,18
9,11
9,14
9,15
9,16
9,17
9,18
10,19
11,20
12,22
13,23
14,21
14,24
15,24
16,39
17,32
18,24
19,27
20,27
21,25
22,26
23,28
24,27
24,28
24,29
25,31
26,30
27,43
27,44
28,32
28,33
29,32
29,33
30,34
31,35
32,35
33,35
34,36
35,36
36,37
36,38
36,39
37,40
38,41
39,42
39,43
39,44
39,45
40,48
41,46
42,47
43,48
43,49
43,50
44,48
44,49
44,50
45,49

<end>
